outputs/case_400.model.txt
related_insurance_type_agent_notary = False
liability_insurance = True
broker_disclose_fee_standard = False
broker_charge_fee = False
bank_operate_as_broker = False
liability_insurance_subscribed = False
guarantee_insurance_subscribed = False
bank_license_permitted = False
bank_operate_as_agent = False
guarantee_deposit_paid = True
related_insurance_type_broker = False
broker_provide_written_report = True
license_permitted = True
broker_duty_of_care_and_fidelity = True
practice_certificate_held = True
penalty = False
related_insurance_subscribed = True
broker_exercise_duty_of_care = True
bank_permitted_to_operate_agent_or_broker = False
agent_broker_notary_license_and_guarantee = True
broker_fulfill_fidelity_duty = True
broker_provide_written_report_and_disclose_fee = True